
Gurobi 11.0.3 (linux64) logging started Fri Nov 22 00:27:49 2024

Set parameter LogFile to value "/home/yihong/Coding/OR_SUC/SUC_results_bigM100000_thread4/case24_ieee_rts_theta0.5_epsilon0.05_gurobi_seed850000_num_gen100_N_WDR100_load_scaling_factor1_exact_T20quadra_cost.txt"
Set parameter TimeLimit to value 3600
Gurobi Optimizer version 11.0.3 build v11.0.3rc0 (linux64 - "Ubuntu 20.04.6 LTS")

CPU model: AMD EPYC 7532 32-Core Processor, instruction set [SSE2|AVX|AVX2]
Thread count: 64 physical cores, 128 logical processors, using up to 4 threads

Optimize a model with 47983 rows, 25001 columns and 1104482 nonzeros
Model fingerprint: 0x944e3efd
Model has 2000 quadratic constraints
Variable types: 22901 continuous, 2100 integer (2100 binary)
Coefficient statistics:
  Matrix range     [3e-04, 1e+05]
  QMatrix range    [2e-03, 8e-03]
  QLMatrix range   [6e-02, 6e+01]
  Objective range  [1e+00, 1e+00]
  Bounds range     [1e+00, 1e+00]
  RHS range        [1e+00, 1e+05]
Presolve removed 39299 rows and 10660 columns
Presolve time: 0.28s
Presolved: 8684 rows, 14341 columns, 48896 nonzeros
Presolved model has 2000 quadratic constraint(s)
Variable types: 12255 continuous, 2086 integer (2086 binary)

Root relaxation: objective 3.909329e+04, 7174 iterations, 0.20 seconds (0.29 work units)

    Nodes    |    Current Node    |     Objective Bounds      |     Work
 Expl Unexpl |  Obj  Depth IntInf | Incumbent    BestBd   Gap | It/Node Time

     0     0 39093.2871    0   33          - 39093.2871      -     -    0s
     0     0 299666.896    0  610          - 299666.896      -     -    1s
     0     0 301485.545    0  604          - 301485.545      -     -    1s
     0     0 500452.767    0  537          - 500452.767      -     -    1s
     0     0 500581.886    0  446          - 500581.886      -     -    1s
     0     0 500986.995    0  378          - 500986.995      -     -    1s
     0     0 500988.340    0  379          - 500988.340      -     -    1s
     0     0 500988.340    0  379          - 500988.340      -     -    1s
     0     0 500988.535    0  379          - 500988.535      -     -    1s
     0     2 500988.535    0  379          - 500988.535      -     -    3s
H  541   386                    501300.92087 501010.589  0.06%  27.4    4s
*  541   386             163    501300.92087 501010.589  0.06%  27.4    4s

Cutting planes:
  Gomory: 2
  Implied bound: 385
  MIR: 104
  Flow cover: 78
  RLT: 1
  Relax-and-lift: 21

Explored 680 nodes (35172 simplex iterations) in 5.34 seconds (6.78 work units)
Thread count was 4 (of 128 available processors)

Solution count 2: 501301 501301 

Optimal solution found (tolerance 1.00e-03)
Warning: max constraint violation (5.8853e-07) exceeds tolerance
Best objective 5.013009208776e+05, best bound 5.010105894434e+05, gap 0.0579%
